NAME                LECTUREPROB
ROWS
 N  COST
 L  C1
 L  C2
 L  C3
COLUMNS
    X1              COST            20       C1              -2
    X1              C2              -4       C3              -3
    X2              COST            15       C1              -3
    X2              C2              -2       C3              -4
RHS
    rhs             C1              -5       C2             -15.004
    rhs             C3             -19.001
BOUNDS
 UI BOUND            X1              9
 UI BOUND            X2              6
 LI BOUND            X1              0
 LI BOUND            X2              0
ENDATA